p cnf 504 2185
1 2 3 4 0
-1 145 0
-2 145 0
-1 -2 146 0
-3 147 0
-4 147 0
-3 -4 148 0
-145 149 0
-147 149 0
-145 -147 150 0
-146 151 0
-148 151 0
-146 -148 152 0
-150 153 0
-151 153 0
-150 -151 154 0
-153 0
37 38 39 40 0
-37 155 0
-38 155 0
-37 -38 156 0
-39 157 0
-40 157 0
-39 -40 158 0
-155 159 0
-157 159 0
-155 -157 160 0
-156 161 0
-158 161 0
-156 -158 162 0
-160 163 0
-161 163 0
-160 -161 164 0
-163 0
73 74 75 76 0
-73 165 0
-74 165 0
-73 -74 166 0
-75 167 0
-76 167 0
-75 -76 168 0
-165 169 0
-167 169 0
-165 -167 170 0
-166 171 0
-168 171 0
-166 -168 172 0
-170 173 0
-171 173 0
-170 -171 174 0
-173 0
109 110 111 112 0
-109 175 0
-110 175 0
-109 -110 176 0
-111 177 0
-112 177 0
-111 -112 178 0
-175 179 0
-177 179 0
-175 -177 180 0
-176 181 0
-178 181 0
-176 -178 182 0
-180 183 0
-181 183 0
-180 -181 184 0
-183 0
5 6 7 8 0
-5 185 0
-6 185 0
-5 -6 186 0
-7 187 0
-8 187 0
-7 -8 188 0
-185 189 0
-187 189 0
-185 -187 190 0
-186 191 0
-188 191 0
-186 -188 192 0
-190 193 0
-191 193 0
-190 -191 194 0
-193 0
41 42 43 44 0
-41 195 0
-42 195 0
-41 -42 196 0
-43 197 0
-44 197 0
-43 -44 198 0
-195 199 0
-197 199 0
-195 -197 200 0
-196 201 0
-198 201 0
-196 -198 202 0
-200 203 0
-201 203 0
-200 -201 204 0
-203 0
77 78 79 80 0
-77 205 0
-78 205 0
-77 -78 206 0
-79 207 0
-80 207 0
-79 -80 208 0
-205 209 0
-207 209 0
-205 -207 210 0
-206 211 0
-208 211 0
-206 -208 212 0
-210 213 0
-211 213 0
-210 -211 214 0
-213 0
113 114 115 116 0
-113 215 0
-114 215 0
-113 -114 216 0
-115 217 0
-116 217 0
-115 -116 218 0
-215 219 0
-217 219 0
-215 -217 220 0
-216 221 0
-218 221 0
-216 -218 222 0
-220 223 0
-221 223 0
-220 -221 224 0
-223 0
9 10 11 12 0
-9 225 0
-10 225 0
-9 -10 226 0
-11 227 0
-12 227 0
-11 -12 228 0
-225 229 0
-227 229 0
-225 -227 230 0
-226 231 0
-228 231 0
-226 -228 232 0
-230 233 0
-231 233 0
-230 -231 234 0
-233 0
45 46 47 48 0
-45 235 0
-46 235 0
-45 -46 236 0
-47 237 0
-48 237 0
-47 -48 238 0
-235 239 0
-237 239 0
-235 -237 240 0
-236 241 0
-238 241 0
-236 -238 242 0
-240 243 0
-241 243 0
-240 -241 244 0
-243 0
81 82 83 84 0
-81 245 0
-82 245 0
-81 -82 246 0
-83 247 0
-84 247 0
-83 -84 248 0
-245 249 0
-247 249 0
-245 -247 250 0
-246 251 0
-248 251 0
-246 -248 252 0
-250 253 0
-251 253 0
-250 -251 254 0
-253 0
117 118 119 120 0
-117 255 0
-118 255 0
-117 -118 256 0
-119 257 0
-120 257 0
-119 -120 258 0
-255 259 0
-257 259 0
-255 -257 260 0
-256 261 0
-258 261 0
-256 -258 262 0
-260 263 0
-261 263 0
-260 -261 264 0
-263 0
13 14 15 16 0
-13 265 0
-14 265 0
-13 -14 266 0
-15 267 0
-16 267 0
-15 -16 268 0
-265 269 0
-267 269 0
-265 -267 270 0
-266 271 0
-268 271 0
-266 -268 272 0
-270 273 0
-271 273 0
-270 -271 274 0
-273 0
49 50 51 52 0
-49 275 0
-50 275 0
-49 -50 276 0
-51 277 0
-52 277 0
-51 -52 278 0
-275 279 0
-277 279 0
-275 -277 280 0
-276 281 0
-278 281 0
-276 -278 282 0
-280 283 0
-281 283 0
-280 -281 284 0
-283 0
85 86 87 88 0
-85 285 0
-86 285 0
-85 -86 286 0
-87 287 0
-88 287 0
-87 -88 288 0
-285 289 0
-287 289 0
-285 -287 290 0
-286 291 0
-288 291 0
-286 -288 292 0
-290 293 0
-291 293 0
-290 -291 294 0
-293 0
121 122 123 124 0
-121 295 0
-122 295 0
-121 -122 296 0
-123 297 0
-124 297 0
-123 -124 298 0
-295 299 0
-297 299 0
-295 -297 300 0
-296 301 0
-298 301 0
-296 -298 302 0
-300 303 0
-301 303 0
-300 -301 304 0
-303 0
17 18 19 20 0
-17 305 0
-18 305 0
-17 -18 306 0
-19 307 0
-20 307 0
-19 -20 308 0
-305 309 0
-307 309 0
-305 -307 310 0
-306 311 0
-308 311 0
-306 -308 312 0
-310 313 0
-311 313 0
-310 -311 314 0
-313 0
53 54 55 56 0
-53 315 0
-54 315 0
-53 -54 316 0
-55 317 0
-56 317 0
-55 -56 318 0
-315 319 0
-317 319 0
-315 -317 320 0
-316 321 0
-318 321 0
-316 -318 322 0
-320 323 0
-321 323 0
-320 -321 324 0
-323 0
89 90 91 92 0
-89 325 0
-90 325 0
-89 -90 326 0
-91 327 0
-92 327 0
-91 -92 328 0
-325 329 0
-327 329 0
-325 -327 330 0
-326 331 0
-328 331 0
-326 -328 332 0
-330 333 0
-331 333 0
-330 -331 334 0
-333 0
125 126 127 128 0
-125 335 0
-126 335 0
-125 -126 336 0
-127 337 0
-128 337 0
-127 -128 338 0
-335 339 0
-337 339 0
-335 -337 340 0
-336 341 0
-338 341 0
-336 -338 342 0
-340 343 0
-341 343 0
-340 -341 344 0
-343 0
21 22 23 24 0
-21 345 0
-22 345 0
-21 -22 346 0
-23 347 0
-24 347 0
-23 -24 348 0
-345 349 0
-347 349 0
-345 -347 350 0
-346 351 0
-348 351 0
-346 -348 352 0
-350 353 0
-351 353 0
-350 -351 354 0
-353 0
57 58 59 60 0
-57 355 0
-58 355 0
-57 -58 356 0
-59 357 0
-60 357 0
-59 -60 358 0
-355 359 0
-357 359 0
-355 -357 360 0
-356 361 0
-358 361 0
-356 -358 362 0
-360 363 0
-361 363 0
-360 -361 364 0
-363 0
93 94 95 96 0
-93 365 0
-94 365 0
-93 -94 366 0
-95 367 0
-96 367 0
-95 -96 368 0
-365 369 0
-367 369 0
-365 -367 370 0
-366 371 0
-368 371 0
-366 -368 372 0
-370 373 0
-371 373 0
-370 -371 374 0
-373 0
129 130 131 132 0
-129 375 0
-130 375 0
-129 -130 376 0
-131 377 0
-132 377 0
-131 -132 378 0
-375 379 0
-377 379 0
-375 -377 380 0
-376 381 0
-378 381 0
-376 -378 382 0
-380 383 0
-381 383 0
-380 -381 384 0
-383 0
25 26 27 28 0
-25 385 0
-26 385 0
-25 -26 386 0
-27 387 0
-28 387 0
-27 -28 388 0
-385 389 0
-387 389 0
-385 -387 390 0
-386 391 0
-388 391 0
-386 -388 392 0
-390 393 0
-391 393 0
-390 -391 394 0
-393 0
61 62 63 64 0
-61 395 0
-62 395 0
-61 -62 396 0
-63 397 0
-64 397 0
-63 -64 398 0
-395 399 0
-397 399 0
-395 -397 400 0
-396 401 0
-398 401 0
-396 -398 402 0
-400 403 0
-401 403 0
-400 -401 404 0
-403 0
97 98 99 100 0
-97 405 0
-98 405 0
-97 -98 406 0
-99 407 0
-100 407 0
-99 -100 408 0
-405 409 0
-407 409 0
-405 -407 410 0
-406 411 0
-408 411 0
-406 -408 412 0
-410 413 0
-411 413 0
-410 -411 414 0
-413 0
133 134 135 136 0
-133 415 0
-134 415 0
-133 -134 416 0
-135 417 0
-136 417 0
-135 -136 418 0
-415 419 0
-417 419 0
-415 -417 420 0
-416 421 0
-418 421 0
-416 -418 422 0
-420 423 0
-421 423 0
-420 -421 424 0
-423 0
29 30 31 32 0
-29 425 0
-30 425 0
-29 -30 426 0
-31 427 0
-32 427 0
-31 -32 428 0
-425 429 0
-427 429 0
-425 -427 430 0
-426 431 0
-428 431 0
-426 -428 432 0
-430 433 0
-431 433 0
-430 -431 434 0
-433 0
65 66 67 68 0
-65 435 0
-66 435 0
-65 -66 436 0
-67 437 0
-68 437 0
-67 -68 438 0
-435 439 0
-437 439 0
-435 -437 440 0
-436 441 0
-438 441 0
-436 -438 442 0
-440 443 0
-441 443 0
-440 -441 444 0
-443 0
101 102 103 104 0
-101 445 0
-102 445 0
-101 -102 446 0
-103 447 0
-104 447 0
-103 -104 448 0
-445 449 0
-447 449 0
-445 -447 450 0
-446 451 0
-448 451 0
-446 -448 452 0
-450 453 0
-451 453 0
-450 -451 454 0
-453 0
137 138 139 140 0
-137 455 0
-138 455 0
-137 -138 456 0
-139 457 0
-140 457 0
-139 -140 458 0
-455 459 0
-457 459 0
-455 -457 460 0
-456 461 0
-458 461 0
-456 -458 462 0
-460 463 0
-461 463 0
-460 -461 464 0
-463 0
33 34 35 36 0
-33 465 0
-34 465 0
-33 -34 466 0
-35 467 0
-36 467 0
-35 -36 468 0
-465 469 0
-467 469 0
-465 -467 470 0
-466 471 0
-468 471 0
-466 -468 472 0
-470 473 0
-471 473 0
-470 -471 474 0
-473 0
69 70 71 72 0
-69 475 0
-70 475 0
-69 -70 476 0
-71 477 0
-72 477 0
-71 -72 478 0
-475 479 0
-477 479 0
-475 -477 480 0
-476 481 0
-478 481 0
-476 -478 482 0
-480 483 0
-481 483 0
-480 -481 484 0
-483 0
105 106 107 108 0
-105 485 0
-106 485 0
-105 -106 486 0
-107 487 0
-108 487 0
-107 -108 488 0
-485 489 0
-487 489 0
-485 -487 490 0
-486 491 0
-488 491 0
-486 -488 492 0
-490 493 0
-491 493 0
-490 -491 494 0
-493 0
141 142 143 144 0
-141 495 0
-142 495 0
-141 -142 496 0
-143 497 0
-144 497 0
-143 -144 498 0
-495 499 0
-497 499 0
-495 -497 500 0
-496 501 0
-498 501 0
-496 -498 502 0
-500 503 0
-501 503 0
-500 -501 504 0
-503 0
-1 -37 6 0
-1 -38 6 0
-1 -39 6 0
-1 -40 6 0
-2 -37 6 0
-2 -38 7 0
-2 -39 7 0
-2 -40 7 0
-3 -37 6 0
-3 -38 7 0
-3 -39 8 0
-3 -40 8 0
-4 -37 6 0
-4 -38 7 0
-4 -39 8 0
-4 -40 5 0
-37 -1 -73 42 0
-37 -2 -73 42 0
-37 -3 -73 42 0
-37 -4 -73 42 0
-37 -1 -74 42 0
-37 -2 -74 42 0
-37 -3 -74 42 0
-37 -4 -74 42 0
-37 -1 -75 42 0
-37 -2 -75 42 0
-37 -3 -75 42 0
-37 -4 -75 42 0
-37 -1 -76 42 0
-37 -2 -76 42 0
-37 -3 -76 42 0
-37 -4 -76 42 0
-38 -1 -73 42 0
-38 -2 -73 42 0
-38 -3 -73 42 0
-38 -4 -73 42 0
-38 -1 -74 42 0
-38 -2 -74 43 0
-38 -3 -74 43 0
-38 -4 -74 43 0
-38 -1 -75 42 0
-38 -2 -75 43 0
-38 -3 -75 43 0
-38 -4 -75 43 0
-38 -1 -76 42 0
-38 -2 -76 43 0
-38 -3 -76 43 0
-38 -4 -76 43 0
-39 -1 -73 42 0
-39 -2 -73 42 0
-39 -3 -73 42 0
-39 -4 -73 42 0
-39 -1 -74 42 0
-39 -2 -74 43 0
-39 -3 -74 43 0
-39 -4 -74 43 0
-39 -1 -75 42 0
-39 -2 -75 43 0
-39 -3 -75 44 0
-39 -4 -75 44 0
-39 -1 -76 42 0
-39 -2 -76 43 0
-39 -3 -76 44 0
-39 -4 -76 44 0
-40 -1 -73 42 0
-40 -2 -73 42 0
-40 -3 -73 42 0
-40 -4 -73 42 0
-40 -1 -74 42 0
-40 -2 -74 43 0
-40 -3 -74 43 0
-40 -4 -74 43 0
-40 -1 -75 42 0
-40 -2 -75 43 0
-40 -3 -75 44 0
-40 -4 -75 44 0
-40 -1 -76 42 0
-40 -2 -76 43 0
-40 -3 -76 44 0
-40 -4 -76 41 0
-73 -37 -109 78 0
-73 -38 -109 78 0
-73 -39 -109 78 0
-73 -40 -109 78 0
-73 -37 -110 78 0
-73 -38 -110 78 0
-73 -39 -110 78 0
-73 -40 -110 78 0
-73 -37 -111 78 0
-73 -38 -111 78 0
-73 -39 -111 78 0
-73 -40 -111 78 0
-73 -37 -112 78 0
-73 -38 -112 78 0
-73 -39 -112 78 0
-73 -40 -112 78 0
-74 -37 -109 78 0
-74 -38 -109 78 0
-74 -39 -109 78 0
-74 -40 -109 78 0
-74 -37 -110 78 0
-74 -38 -110 79 0
-74 -39 -110 79 0
-74 -40 -110 79 0
-74 -37 -111 78 0
-74 -38 -111 79 0
-74 -39 -111 79 0
-74 -40 -111 79 0
-74 -37 -112 78 0
-74 -38 -112 79 0
-74 -39 -112 79 0
-74 -40 -112 79 0
-75 -37 -109 78 0
-75 -38 -109 78 0
-75 -39 -109 78 0
-75 -40 -109 78 0
-75 -37 -110 78 0
-75 -38 -110 79 0
-75 -39 -110 79 0
-75 -40 -110 79 0
-75 -37 -111 78 0
-75 -38 -111 79 0
-75 -39 -111 80 0
-75 -40 -111 80 0
-75 -37 -112 78 0
-75 -38 -112 79 0
-75 -39 -112 80 0
-75 -40 -112 80 0
-76 -37 -109 78 0
-76 -38 -109 78 0
-76 -39 -109 78 0
-76 -40 -109 78 0
-76 -37 -110 78 0
-76 -38 -110 79 0
-76 -39 -110 79 0
-76 -40 -110 79 0
-76 -37 -111 78 0
-76 -38 -111 79 0
-76 -39 -111 80 0
-76 -40 -111 80 0
-76 -37 -112 78 0
-76 -38 -112 79 0
-76 -39 -112 80 0
-76 -40 -112 77 0
-109 -73 114 0
-109 -74 114 0
-109 -75 114 0
-109 -76 114 0
-110 -73 114 0
-110 -74 115 0
-110 -75 115 0
-110 -76 115 0
-111 -73 114 0
-111 -74 115 0
-111 -75 116 0
-111 -76 116 0
-112 -73 114 0
-112 -74 115 0
-112 -75 116 0
-112 -76 113 0
-5 -41 10 0
-5 -42 10 0
-5 -43 10 0
-5 -44 10 0
-6 -41 10 0
-6 -42 11 0
-6 -43 11 0
-6 -44 11 0
-7 -41 10 0
-7 -42 11 0
-7 -43 12 0
-7 -44 12 0
-8 -41 10 0
-8 -42 11 0
-8 -43 12 0
-8 -44 9 0
-41 -5 -77 46 0
-41 -6 -77 46 0
-41 -7 -77 46 0
-41 -8 -77 46 0
-41 -5 -78 46 0
-41 -6 -78 46 0
-41 -7 -78 46 0
-41 -8 -78 46 0
-41 -5 -79 46 0
-41 -6 -79 46 0
-41 -7 -79 46 0
-41 -8 -79 46 0
-41 -5 -80 46 0
-41 -6 -80 46 0
-41 -7 -80 46 0
-41 -8 -80 46 0
-42 -5 -77 46 0
-42 -6 -77 46 0
-42 -7 -77 46 0
-42 -8 -77 46 0
-42 -5 -78 46 0
-42 -6 -78 47 0
-42 -7 -78 47 0
-42 -8 -78 47 0
-42 -5 -79 46 0
-42 -6 -79 47 0
-42 -7 -79 47 0
-42 -8 -79 47 0
-42 -5 -80 46 0
-42 -6 -80 47 0
-42 -7 -80 47 0
-42 -8 -80 47 0
-43 -5 -77 46 0
-43 -6 -77 46 0
-43 -7 -77 46 0
-43 -8 -77 46 0
-43 -5 -78 46 0
-43 -6 -78 47 0
-43 -7 -78 47 0
-43 -8 -78 47 0
-43 -5 -79 46 0
-43 -6 -79 47 0
-43 -7 -79 48 0
-43 -8 -79 48 0
-43 -5 -80 46 0
-43 -6 -80 47 0
-43 -7 -80 48 0
-43 -8 -80 48 0
-44 -5 -77 46 0
-44 -6 -77 46 0
-44 -7 -77 46 0
-44 -8 -77 46 0
-44 -5 -78 46 0
-44 -6 -78 47 0
-44 -7 -78 47 0
-44 -8 -78 47 0
-44 -5 -79 46 0
-44 -6 -79 47 0
-44 -7 -79 48 0
-44 -8 -79 48 0
-44 -5 -80 46 0
-44 -6 -80 47 0
-44 -7 -80 48 0
-44 -8 -80 45 0
-77 -41 -113 82 0
-77 -42 -113 82 0
-77 -43 -113 82 0
-77 -44 -113 82 0
-77 -41 -114 82 0
-77 -42 -114 82 0
-77 -43 -114 82 0
-77 -44 -114 82 0
-77 -41 -115 82 0
-77 -42 -115 82 0
-77 -43 -115 82 0
-77 -44 -115 82 0
-77 -41 -116 82 0
-77 -42 -116 82 0
-77 -43 -116 82 0
-77 -44 -116 82 0
-78 -41 -113 82 0
-78 -42 -113 82 0
-78 -43 -113 82 0
-78 -44 -113 82 0
-78 -41 -114 82 0
-78 -42 -114 83 0
-78 -43 -114 83 0
-78 -44 -114 83 0
-78 -41 -115 82 0
-78 -42 -115 83 0
-78 -43 -115 83 0
-78 -44 -115 83 0
-78 -41 -116 82 0
-78 -42 -116 83 0
-78 -43 -116 83 0
-78 -44 -116 83 0
-79 -41 -113 82 0
-79 -42 -113 82 0
-79 -43 -113 82 0
-79 -44 -113 82 0
-79 -41 -114 82 0
-79 -42 -114 83 0
-79 -43 -114 83 0
-79 -44 -114 83 0
-79 -41 -115 82 0
-79 -42 -115 83 0
-79 -43 -115 84 0
-79 -44 -115 84 0
-79 -41 -116 82 0
-79 -42 -116 83 0
-79 -43 -116 84 0
-79 -44 -116 84 0
-80 -41 -113 82 0
-80 -42 -113 82 0
-80 -43 -113 82 0
-80 -44 -113 82 0
-80 -41 -114 82 0
-80 -42 -114 83 0
-80 -43 -114 83 0
-80 -44 -114 83 0
-80 -41 -115 82 0
-80 -42 -115 83 0
-80 -43 -115 84 0
-80 -44 -115 84 0
-80 -41 -116 82 0
-80 -42 -116 83 0
-80 -43 -116 84 0
-80 -44 -116 81 0
-113 -77 118 0
-113 -78 118 0
-113 -79 118 0
-113 -80 118 0
-114 -77 118 0
-114 -78 119 0
-114 -79 119 0
-114 -80 119 0
-115 -77 118 0
-115 -78 119 0
-115 -79 120 0
-115 -80 120 0
-116 -77 118 0
-116 -78 119 0
-116 -79 120 0
-116 -80 117 0
-9 -45 14 0
-9 -46 14 0
-9 -47 14 0
-9 -48 14 0
-10 -45 14 0
-10 -46 15 0
-10 -47 15 0
-10 -48 15 0
-11 -45 14 0
-11 -46 15 0
-11 -47 16 0
-11 -48 16 0
-12 -45 14 0
-12 -46 15 0
-12 -47 16 0
-12 -48 13 0
-45 -9 -81 50 0
-45 -10 -81 50 0
-45 -11 -81 50 0
-45 -12 -81 50 0
-45 -9 -82 50 0
-45 -10 -82 50 0
-45 -11 -82 50 0
-45 -12 -82 50 0
-45 -9 -83 50 0
-45 -10 -83 50 0
-45 -11 -83 50 0
-45 -12 -83 50 0
-45 -9 -84 50 0
-45 -10 -84 50 0
-45 -11 -84 50 0
-45 -12 -84 50 0
-46 -9 -81 50 0
-46 -10 -81 50 0
-46 -11 -81 50 0
-46 -12 -81 50 0
-46 -9 -82 50 0
-46 -10 -82 51 0
-46 -11 -82 51 0
-46 -12 -82 51 0
-46 -9 -83 50 0
-46 -10 -83 51 0
-46 -11 -83 51 0
-46 -12 -83 51 0
-46 -9 -84 50 0
-46 -10 -84 51 0
-46 -11 -84 51 0
-46 -12 -84 51 0
-47 -9 -81 50 0
-47 -10 -81 50 0
-47 -11 -81 50 0
-47 -12 -81 50 0
-47 -9 -82 50 0
-47 -10 -82 51 0
-47 -11 -82 51 0
-47 -12 -82 51 0
-47 -9 -83 50 0
-47 -10 -83 51 0
-47 -11 -83 52 0
-47 -12 -83 52 0
-47 -9 -84 50 0
-47 -10 -84 51 0
-47 -11 -84 52 0
-47 -12 -84 52 0
-48 -9 -81 50 0
-48 -10 -81 50 0
-48 -11 -81 50 0
-48 -12 -81 50 0
-48 -9 -82 50 0
-48 -10 -82 51 0
-48 -11 -82 51 0
-48 -12 -82 51 0
-48 -9 -83 50 0
-48 -10 -83 51 0
-48 -11 -83 52 0
-48 -12 -83 52 0
-48 -9 -84 50 0
-48 -10 -84 51 0
-48 -11 -84 52 0
-48 -12 -84 49 0
-81 -45 -117 86 0
-81 -46 -117 86 0
-81 -47 -117 86 0
-81 -48 -117 86 0
-81 -45 -118 86 0
-81 -46 -118 86 0
-81 -47 -118 86 0
-81 -48 -118 86 0
-81 -45 -119 86 0
-81 -46 -119 86 0
-81 -47 -119 86 0
-81 -48 -119 86 0
-81 -45 -120 86 0
-81 -46 -120 86 0
-81 -47 -120 86 0
-81 -48 -120 86 0
-82 -45 -117 86 0
-82 -46 -117 86 0
-82 -47 -117 86 0
-82 -48 -117 86 0
-82 -45 -118 86 0
-82 -46 -118 87 0
-82 -47 -118 87 0
-82 -48 -118 87 0
-82 -45 -119 86 0
-82 -46 -119 87 0
-82 -47 -119 87 0
-82 -48 -119 87 0
-82 -45 -120 86 0
-82 -46 -120 87 0
-82 -47 -120 87 0
-82 -48 -120 87 0
-83 -45 -117 86 0
-83 -46 -117 86 0
-83 -47 -117 86 0
-83 -48 -117 86 0
-83 -45 -118 86 0
-83 -46 -118 87 0
-83 -47 -118 87 0
-83 -48 -118 87 0
-83 -45 -119 86 0
-83 -46 -119 87 0
-83 -47 -119 88 0
-83 -48 -119 88 0
-83 -45 -120 86 0
-83 -46 -120 87 0
-83 -47 -120 88 0
-83 -48 -120 88 0
-84 -45 -117 86 0
-84 -46 -117 86 0
-84 -47 -117 86 0
-84 -48 -117 86 0
-84 -45 -118 86 0
-84 -46 -118 87 0
-84 -47 -118 87 0
-84 -48 -118 87 0
-84 -45 -119 86 0
-84 -46 -119 87 0
-84 -47 -119 88 0
-84 -48 -119 88 0
-84 -45 -120 86 0
-84 -46 -120 87 0
-84 -47 -120 88 0
-84 -48 -120 85 0
-117 -81 122 0
-117 -82 122 0
-117 -83 122 0
-117 -84 122 0
-118 -81 122 0
-118 -82 123 0
-118 -83 123 0
-118 -84 123 0
-119 -81 122 0
-119 -82 123 0
-119 -83 124 0
-119 -84 124 0
-120 -81 122 0
-120 -82 123 0
-120 -83 124 0
-120 -84 121 0
-13 -49 18 0
-13 -50 18 0
-13 -51 18 0
-13 -52 18 0
-14 -49 18 0
-14 -50 19 0
-14 -51 19 0
-14 -52 19 0
-15 -49 18 0
-15 -50 19 0
-15 -51 20 0
-15 -52 20 0
-16 -49 18 0
-16 -50 19 0
-16 -51 20 0
-16 -52 17 0
-49 -13 -85 54 0
-49 -14 -85 54 0
-49 -15 -85 54 0
-49 -16 -85 54 0
-49 -13 -86 54 0
-49 -14 -86 54 0
-49 -15 -86 54 0
-49 -16 -86 54 0
-49 -13 -87 54 0
-49 -14 -87 54 0
-49 -15 -87 54 0
-49 -16 -87 54 0
-49 -13 -88 54 0
-49 -14 -88 54 0
-49 -15 -88 54 0
-49 -16 -88 54 0
-50 -13 -85 54 0
-50 -14 -85 54 0
-50 -15 -85 54 0
-50 -16 -85 54 0
-50 -13 -86 54 0
-50 -14 -86 55 0
-50 -15 -86 55 0
-50 -16 -86 55 0
-50 -13 -87 54 0
-50 -14 -87 55 0
-50 -15 -87 55 0
-50 -16 -87 55 0
-50 -13 -88 54 0
-50 -14 -88 55 0
-50 -15 -88 55 0
-50 -16 -88 55 0
-51 -13 -85 54 0
-51 -14 -85 54 0
-51 -15 -85 54 0
-51 -16 -85 54 0
-51 -13 -86 54 0
-51 -14 -86 55 0
-51 -15 -86 55 0
-51 -16 -86 55 0
-51 -13 -87 54 0
-51 -14 -87 55 0
-51 -15 -87 56 0
-51 -16 -87 56 0
-51 -13 -88 54 0
-51 -14 -88 55 0
-51 -15 -88 56 0
-51 -16 -88 56 0
-52 -13 -85 54 0
-52 -14 -85 54 0
-52 -15 -85 54 0
-52 -16 -85 54 0
-52 -13 -86 54 0
-52 -14 -86 55 0
-52 -15 -86 55 0
-52 -16 -86 55 0
-52 -13 -87 54 0
-52 -14 -87 55 0
-52 -15 -87 56 0
-52 -16 -87 56 0
-52 -13 -88 54 0
-52 -14 -88 55 0
-52 -15 -88 56 0
-52 -16 -88 53 0
-85 -49 -121 90 0
-85 -50 -121 90 0
-85 -51 -121 90 0
-85 -52 -121 90 0
-85 -49 -122 90 0
-85 -50 -122 90 0
-85 -51 -122 90 0
-85 -52 -122 90 0
-85 -49 -123 90 0
-85 -50 -123 90 0
-85 -51 -123 90 0
-85 -52 -123 90 0
-85 -49 -124 90 0
-85 -50 -124 90 0
-85 -51 -124 90 0
-85 -52 -124 90 0
-86 -49 -121 90 0
-86 -50 -121 90 0
-86 -51 -121 90 0
-86 -52 -121 90 0
-86 -49 -122 90 0
-86 -50 -122 91 0
-86 -51 -122 91 0
-86 -52 -122 91 0
-86 -49 -123 90 0
-86 -50 -123 91 0
-86 -51 -123 91 0
-86 -52 -123 91 0
-86 -49 -124 90 0
-86 -50 -124 91 0
-86 -51 -124 91 0
-86 -52 -124 91 0
-87 -49 -121 90 0
-87 -50 -121 90 0
-87 -51 -121 90 0
-87 -52 -121 90 0
-87 -49 -122 90 0
-87 -50 -122 91 0
-87 -51 -122 91 0
-87 -52 -122 91 0
-87 -49 -123 90 0
-87 -50 -123 91 0
-87 -51 -123 92 0
-87 -52 -123 92 0
-87 -49 -124 90 0
-87 -50 -124 91 0
-87 -51 -124 92 0
-87 -52 -124 92 0
-88 -49 -121 90 0
-88 -50 -121 90 0
-88 -51 -121 90 0
-88 -52 -121 90 0
-88 -49 -122 90 0
-88 -50 -122 91 0
-88 -51 -122 91 0
-88 -52 -122 91 0
-88 -49 -123 90 0
-88 -50 -123 91 0
-88 -51 -123 92 0
-88 -52 -123 92 0
-88 -49 -124 90 0
-88 -50 -124 91 0
-88 -51 -124 92 0
-88 -52 -124 89 0
-121 -85 126 0
-121 -86 126 0
-121 -87 126 0
-121 -88 126 0
-122 -85 126 0
-122 -86 127 0
-122 -87 127 0
-122 -88 127 0
-123 -85 126 0
-123 -86 127 0
-123 -87 128 0
-123 -88 128 0
-124 -85 126 0
-124 -86 127 0
-124 -87 128 0
-124 -88 125 0
-17 -53 22 0
-17 -54 22 0
-17 -55 22 0
-17 -56 22 0
-18 -53 22 0
-18 -54 23 0
-18 -55 23 0
-18 -56 23 0
-19 -53 22 0
-19 -54 23 0
-19 -55 24 0
-19 -56 24 0
-20 -53 22 0
-20 -54 23 0
-20 -55 24 0
-20 -56 21 0
-53 -17 -89 58 0
-53 -18 -89 58 0
-53 -19 -89 58 0
-53 -20 -89 58 0
-53 -17 -90 58 0
-53 -18 -90 58 0
-53 -19 -90 58 0
-53 -20 -90 58 0
-53 -17 -91 58 0
-53 -18 -91 58 0
-53 -19 -91 58 0
-53 -20 -91 58 0
-53 -17 -92 58 0
-53 -18 -92 58 0
-53 -19 -92 58 0
-53 -20 -92 58 0
-54 -17 -89 58 0
-54 -18 -89 58 0
-54 -19 -89 58 0
-54 -20 -89 58 0
-54 -17 -90 58 0
-54 -18 -90 59 0
-54 -19 -90 59 0
-54 -20 -90 59 0
-54 -17 -91 58 0
-54 -18 -91 59 0
-54 -19 -91 59 0
-54 -20 -91 59 0
-54 -17 -92 58 0
-54 -18 -92 59 0
-54 -19 -92 59 0
-54 -20 -92 59 0
-55 -17 -89 58 0
-55 -18 -89 58 0
-55 -19 -89 58 0
-55 -20 -89 58 0
-55 -17 -90 58 0
-55 -18 -90 59 0
-55 -19 -90 59 0
-55 -20 -90 59 0
-55 -17 -91 58 0
-55 -18 -91 59 0
-55 -19 -91 60 0
-55 -20 -91 60 0
-55 -17 -92 58 0
-55 -18 -92 59 0
-55 -19 -92 60 0
-55 -20 -92 60 0
-56 -17 -89 58 0
-56 -18 -89 58 0
-56 -19 -89 58 0
-56 -20 -89 58 0
-56 -17 -90 58 0
-56 -18 -90 59 0
-56 -19 -90 59 0
-56 -20 -90 59 0
-56 -17 -91 58 0
-56 -18 -91 59 0
-56 -19 -91 60 0
-56 -20 -91 60 0
-56 -17 -92 58 0
-56 -18 -92 59 0
-56 -19 -92 60 0
-56 -20 -92 57 0
-89 -53 -125 94 0
-89 -54 -125 94 0
-89 -55 -125 94 0
-89 -56 -125 94 0
-89 -53 -126 94 0
-89 -54 -126 94 0
-89 -55 -126 94 0
-89 -56 -126 94 0
-89 -53 -127 94 0
-89 -54 -127 94 0
-89 -55 -127 94 0
-89 -56 -127 94 0
-89 -53 -128 94 0
-89 -54 -128 94 0
-89 -55 -128 94 0
-89 -56 -128 94 0
-90 -53 -125 94 0
-90 -54 -125 94 0
-90 -55 -125 94 0
-90 -56 -125 94 0
-90 -53 -126 94 0
-90 -54 -126 95 0
-90 -55 -126 95 0
-90 -56 -126 95 0
-90 -53 -127 94 0
-90 -54 -127 95 0
-90 -55 -127 95 0
-90 -56 -127 95 0
-90 -53 -128 94 0
-90 -54 -128 95 0
-90 -55 -128 95 0
-90 -56 -128 95 0
-91 -53 -125 94 0
-91 -54 -125 94 0
-91 -55 -125 94 0
-91 -56 -125 94 0
-91 -53 -126 94 0
-91 -54 -126 95 0
-91 -55 -126 95 0
-91 -56 -126 95 0
-91 -53 -127 94 0
-91 -54 -127 95 0
-91 -55 -127 96 0
-91 -56 -127 96 0
-91 -53 -128 94 0
-91 -54 -128 95 0
-91 -55 -128 96 0
-91 -56 -128 96 0
-92 -53 -125 94 0
-92 -54 -125 94 0
-92 -55 -125 94 0
-92 -56 -125 94 0
-92 -53 -126 94 0
-92 -54 -126 95 0
-92 -55 -126 95 0
-92 -56 -126 95 0
-92 -53 -127 94 0
-92 -54 -127 95 0
-92 -55 -127 96 0
-92 -56 -127 96 0
-92 -53 -128 94 0
-92 -54 -128 95 0
-92 -55 -128 96 0
-92 -56 -128 93 0
-125 -89 130 0
-125 -90 130 0
-125 -91 130 0
-125 -92 130 0
-126 -89 130 0
-126 -90 131 0
-126 -91 131 0
-126 -92 131 0
-127 -89 130 0
-127 -90 131 0
-127 -91 132 0
-127 -92 132 0
-128 -89 130 0
-128 -90 131 0
-128 -91 132 0
-128 -92 129 0
-21 -57 26 0
-21 -58 26 0
-21 -59 26 0
-21 -60 26 0
-22 -57 26 0
-22 -58 27 0
-22 -59 27 0
-22 -60 27 0
-23 -57 26 0
-23 -58 27 0
-23 -59 28 0
-23 -60 28 0
-24 -57 26 0
-24 -58 27 0
-24 -59 28 0
-24 -60 25 0
-57 -21 -93 62 0
-57 -22 -93 62 0
-57 -23 -93 62 0
-57 -24 -93 62 0
-57 -21 -94 62 0
-57 -22 -94 62 0
-57 -23 -94 62 0
-57 -24 -94 62 0
-57 -21 -95 62 0
-57 -22 -95 62 0
-57 -23 -95 62 0
-57 -24 -95 62 0
-57 -21 -96 62 0
-57 -22 -96 62 0
-57 -23 -96 62 0
-57 -24 -96 62 0
-58 -21 -93 62 0
-58 -22 -93 62 0
-58 -23 -93 62 0
-58 -24 -93 62 0
-58 -21 -94 62 0
-58 -22 -94 63 0
-58 -23 -94 63 0
-58 -24 -94 63 0
-58 -21 -95 62 0
-58 -22 -95 63 0
-58 -23 -95 63 0
-58 -24 -95 63 0
-58 -21 -96 62 0
-58 -22 -96 63 0
-58 -23 -96 63 0
-58 -24 -96 63 0
-59 -21 -93 62 0
-59 -22 -93 62 0
-59 -23 -93 62 0
-59 -24 -93 62 0
-59 -21 -94 62 0
-59 -22 -94 63 0
-59 -23 -94 63 0
-59 -24 -94 63 0
-59 -21 -95 62 0
-59 -22 -95 63 0
-59 -23 -95 64 0
-59 -24 -95 64 0
-59 -21 -96 62 0
-59 -22 -96 63 0
-59 -23 -96 64 0
-59 -24 -96 64 0
-60 -21 -93 62 0
-60 -22 -93 62 0
-60 -23 -93 62 0
-60 -24 -93 62 0
-60 -21 -94 62 0
-60 -22 -94 63 0
-60 -23 -94 63 0
-60 -24 -94 63 0
-60 -21 -95 62 0
-60 -22 -95 63 0
-60 -23 -95 64 0
-60 -24 -95 64 0
-60 -21 -96 62 0
-60 -22 -96 63 0
-60 -23 -96 64 0
-60 -24 -96 61 0
-93 -57 -129 98 0
-93 -58 -129 98 0
-93 -59 -129 98 0
-93 -60 -129 98 0
-93 -57 -130 98 0
-93 -58 -130 98 0
-93 -59 -130 98 0
-93 -60 -130 98 0
-93 -57 -131 98 0
-93 -58 -131 98 0
-93 -59 -131 98 0
-93 -60 -131 98 0
-93 -57 -132 98 0
-93 -58 -132 98 0
-93 -59 -132 98 0
-93 -60 -132 98 0
-94 -57 -129 98 0
-94 -58 -129 98 0
-94 -59 -129 98 0
-94 -60 -129 98 0
-94 -57 -130 98 0
-94 -58 -130 99 0
-94 -59 -130 99 0
-94 -60 -130 99 0
-94 -57 -131 98 0
-94 -58 -131 99 0
-94 -59 -131 99 0
-94 -60 -131 99 0
-94 -57 -132 98 0
-94 -58 -132 99 0
-94 -59 -132 99 0
-94 -60 -132 99 0
-95 -57 -129 98 0
-95 -58 -129 98 0
-95 -59 -129 98 0
-95 -60 -129 98 0
-95 -57 -130 98 0
-95 -58 -130 99 0
-95 -59 -130 99 0
-95 -60 -130 99 0
-95 -57 -131 98 0
-95 -58 -131 99 0
-95 -59 -131 100 0
-95 -60 -131 100 0
-95 -57 -132 98 0
-95 -58 -132 99 0
-95 -59 -132 100 0
-95 -60 -132 100 0
-96 -57 -129 98 0
-96 -58 -129 98 0
-96 -59 -129 98 0
-96 -60 -129 98 0
-96 -57 -130 98 0
-96 -58 -130 99 0
-96 -59 -130 99 0
-96 -60 -130 99 0
-96 -57 -131 98 0
-96 -58 -131 99 0
-96 -59 -131 100 0
-96 -60 -131 100 0
-96 -57 -132 98 0
-96 -58 -132 99 0
-96 -59 -132 100 0
-96 -60 -132 97 0
-129 -93 134 0
-129 -94 134 0
-129 -95 134 0
-129 -96 134 0
-130 -93 134 0
-130 -94 135 0
-130 -95 135 0
-130 -96 135 0
-131 -93 134 0
-131 -94 135 0
-131 -95 136 0
-131 -96 136 0
-132 -93 134 0
-132 -94 135 0
-132 -95 136 0
-132 -96 133 0
-25 -61 30 0
-25 -62 30 0
-25 -63 30 0
-25 -64 30 0
-26 -61 30 0
-26 -62 31 0
-26 -63 31 0
-26 -64 31 0
-27 -61 30 0
-27 -62 31 0
-27 -63 32 0
-27 -64 32 0
-28 -61 30 0
-28 -62 31 0
-28 -63 32 0
-28 -64 29 0
-61 -25 -97 66 0
-61 -26 -97 66 0
-61 -27 -97 66 0
-61 -28 -97 66 0
-61 -25 -98 66 0
-61 -26 -98 66 0
-61 -27 -98 66 0
-61 -28 -98 66 0
-61 -25 -99 66 0
-61 -26 -99 66 0
-61 -27 -99 66 0
-61 -28 -99 66 0
-61 -25 -100 66 0
-61 -26 -100 66 0
-61 -27 -100 66 0
-61 -28 -100 66 0
-62 -25 -97 66 0
-62 -26 -97 66 0
-62 -27 -97 66 0
-62 -28 -97 66 0
-62 -25 -98 66 0
-62 -26 -98 67 0
-62 -27 -98 67 0
-62 -28 -98 67 0
-62 -25 -99 66 0
-62 -26 -99 67 0
-62 -27 -99 67 0
-62 -28 -99 67 0
-62 -25 -100 66 0
-62 -26 -100 67 0
-62 -27 -100 67 0
-62 -28 -100 67 0
-63 -25 -97 66 0
-63 -26 -97 66 0
-63 -27 -97 66 0
-63 -28 -97 66 0
-63 -25 -98 66 0
-63 -26 -98 67 0
-63 -27 -98 67 0
-63 -28 -98 67 0
-63 -25 -99 66 0
-63 -26 -99 67 0
-63 -27 -99 68 0
-63 -28 -99 68 0
-63 -25 -100 66 0
-63 -26 -100 67 0
-63 -27 -100 68 0
-63 -28 -100 68 0
-64 -25 -97 66 0
-64 -26 -97 66 0
-64 -27 -97 66 0
-64 -28 -97 66 0
-64 -25 -98 66 0
-64 -26 -98 67 0
-64 -27 -98 67 0
-64 -28 -98 67 0
-64 -25 -99 66 0
-64 -26 -99 67 0
-64 -27 -99 68 0
-64 -28 -99 68 0
-64 -25 -100 66 0
-64 -26 -100 67 0
-64 -27 -100 68 0
-64 -28 -100 65 0
-97 -61 -133 102 0
-97 -62 -133 102 0
-97 -63 -133 102 0
-97 -64 -133 102 0
-97 -61 -134 102 0
-97 -62 -134 102 0
-97 -63 -134 102 0
-97 -64 -134 102 0
-97 -61 -135 102 0
-97 -62 -135 102 0
-97 -63 -135 102 0
-97 -64 -135 102 0
-97 -61 -136 102 0
-97 -62 -136 102 0
-97 -63 -136 102 0
-97 -64 -136 102 0
-98 -61 -133 102 0
-98 -62 -133 102 0
-98 -63 -133 102 0
-98 -64 -133 102 0
-98 -61 -134 102 0
-98 -62 -134 103 0
-98 -63 -134 103 0
-98 -64 -134 103 0
-98 -61 -135 102 0
-98 -62 -135 103 0
-98 -63 -135 103 0
-98 -64 -135 103 0
-98 -61 -136 102 0
-98 -62 -136 103 0
-98 -63 -136 103 0
-98 -64 -136 103 0
-99 -61 -133 102 0
-99 -62 -133 102 0
-99 -63 -133 102 0
-99 -64 -133 102 0
-99 -61 -134 102 0
-99 -62 -134 103 0
-99 -63 -134 103 0
-99 -64 -134 103 0
-99 -61 -135 102 0
-99 -62 -135 103 0
-99 -63 -135 104 0
-99 -64 -135 104 0
-99 -61 -136 102 0
-99 -62 -136 103 0
-99 -63 -136 104 0
-99 -64 -136 104 0
-100 -61 -133 102 0
-100 -62 -133 102 0
-100 -63 -133 102 0
-100 -64 -133 102 0
-100 -61 -134 102 0
-100 -62 -134 103 0
-100 -63 -134 103 0
-100 -64 -134 103 0
-100 -61 -135 102 0
-100 -62 -135 103 0
-100 -63 -135 104 0
-100 -64 -135 104 0
-100 -61 -136 102 0
-100 -62 -136 103 0
-100 -63 -136 104 0
-100 -64 -136 101 0
-133 -97 138 0
-133 -98 138 0
-133 -99 138 0
-133 -100 138 0
-134 -97 138 0
-134 -98 139 0
-134 -99 139 0
-134 -100 139 0
-135 -97 138 0
-135 -98 139 0
-135 -99 140 0
-135 -100 140 0
-136 -97 138 0
-136 -98 139 0
-136 -99 140 0
-136 -100 137 0
-29 -65 34 0
-29 -66 34 0
-29 -67 34 0
-29 -68 34 0
-30 -65 34 0
-30 -66 35 0
-30 -67 35 0
-30 -68 35 0
-31 -65 34 0
-31 -66 35 0
-31 -67 36 0
-31 -68 36 0
-32 -65 34 0
-32 -66 35 0
-32 -67 36 0
-32 -68 33 0
-65 -29 -101 70 0
-65 -30 -101 70 0
-65 -31 -101 70 0
-65 -32 -101 70 0
-65 -29 -102 70 0
-65 -30 -102 70 0
-65 -31 -102 70 0
-65 -32 -102 70 0
-65 -29 -103 70 0
-65 -30 -103 70 0
-65 -31 -103 70 0
-65 -32 -103 70 0
-65 -29 -104 70 0
-65 -30 -104 70 0
-65 -31 -104 70 0
-65 -32 -104 70 0
-66 -29 -101 70 0
-66 -30 -101 70 0
-66 -31 -101 70 0
-66 -32 -101 70 0
-66 -29 -102 70 0
-66 -30 -102 71 0
-66 -31 -102 71 0
-66 -32 -102 71 0
-66 -29 -103 70 0
-66 -30 -103 71 0
-66 -31 -103 71 0
-66 -32 -103 71 0
-66 -29 -104 70 0
-66 -30 -104 71 0
-66 -31 -104 71 0
-66 -32 -104 71 0
-67 -29 -101 70 0
-67 -30 -101 70 0
-67 -31 -101 70 0
-67 -32 -101 70 0
-67 -29 -102 70 0
-67 -30 -102 71 0
-67 -31 -102 71 0
-67 -32 -102 71 0
-67 -29 -103 70 0
-67 -30 -103 71 0
-67 -31 -103 72 0
-67 -32 -103 72 0
-67 -29 -104 70 0
-67 -30 -104 71 0
-67 -31 -104 72 0
-67 -32 -104 72 0
-68 -29 -101 70 0
-68 -30 -101 70 0
-68 -31 -101 70 0
-68 -32 -101 70 0
-68 -29 -102 70 0
-68 -30 -102 71 0
-68 -31 -102 71 0
-68 -32 -102 71 0
-68 -29 -103 70 0
-68 -30 -103 71 0
-68 -31 -103 72 0
-68 -32 -103 72 0
-68 -29 -104 70 0
-68 -30 -104 71 0
-68 -31 -104 72 0
-68 -32 -104 69 0
-101 -65 -137 106 0
-101 -66 -137 106 0
-101 -67 -137 106 0
-101 -68 -137 106 0
-101 -65 -138 106 0
-101 -66 -138 106 0
-101 -67 -138 106 0
-101 -68 -138 106 0
-101 -65 -139 106 0
-101 -66 -139 106 0
-101 -67 -139 106 0
-101 -68 -139 106 0
-101 -65 -140 106 0
-101 -66 -140 106 0
-101 -67 -140 106 0
-101 -68 -140 106 0
-102 -65 -137 106 0
-102 -66 -137 106 0
-102 -67 -137 106 0
-102 -68 -137 106 0
-102 -65 -138 106 0
-102 -66 -138 107 0
-102 -67 -138 107 0
-102 -68 -138 107 0
-102 -65 -139 106 0
-102 -66 -139 107 0
-102 -67 -139 107 0
-102 -68 -139 107 0
-102 -65 -140 106 0
-102 -66 -140 107 0
-102 -67 -140 107 0
-102 -68 -140 107 0
-103 -65 -137 106 0
-103 -66 -137 106 0
-103 -67 -137 106 0
-103 -68 -137 106 0
-103 -65 -138 106 0
-103 -66 -138 107 0
-103 -67 -138 107 0
-103 -68 -138 107 0
-103 -65 -139 106 0
-103 -66 -139 107 0
-103 -67 -139 108 0
-103 -68 -139 108 0
-103 -65 -140 106 0
-103 -66 -140 107 0
-103 -67 -140 108 0
-103 -68 -140 108 0
-104 -65 -137 106 0
-104 -66 -137 106 0
-104 -67 -137 106 0
-104 -68 -137 106 0
-104 -65 -138 106 0
-104 -66 -138 107 0
-104 -67 -138 107 0
-104 -68 -138 107 0
-104 -65 -139 106 0
-104 -66 -139 107 0
-104 -67 -139 108 0
-104 -68 -139 108 0
-104 -65 -140 106 0
-104 -66 -140 107 0
-104 -67 -140 108 0
-104 -68 -140 105 0
-137 -101 142 0
-137 -102 142 0
-137 -103 142 0
-137 -104 142 0
-138 -101 142 0
-138 -102 143 0
-138 -103 143 0
-138 -104 143 0
-139 -101 142 0
-139 -102 143 0
-139 -103 144 0
-139 -104 144 0
-140 -101 142 0
-140 -102 143 0
-140 -103 144 0
-140 -104 141 0
146 147 148 149 150 151 152 153 0
158 159 160 161 -146 0
1 -158 0
5 -158 0
2 -159 0
6 -159 0
3 -160 0
7 -160 0
4 -161 0
8 -161 0
194 195 196 197 -146 0
37 -194 0
41 -194 0
38 -195 0
42 -195 0
39 -196 0
43 -196 0
40 -197 0
44 -197 0
230 231 232 233 -146 0
73 -230 0
77 -230 0
74 -231 0
78 -231 0
75 -232 0
79 -232 0
76 -233 0
80 -233 0
266 267 268 269 -146 0
109 -266 0
113 -266 0
110 -267 0
114 -267 0
111 -268 0
115 -268 0
112 -269 0
116 -269 0
162 163 164 165 -147 0
1 -162 0
9 -162 0
2 -163 0
10 -163 0
3 -164 0
11 -164 0
4 -165 0
12 -165 0
198 199 200 201 -147 0
37 -198 0
45 -198 0
38 -199 0
46 -199 0
39 -200 0
47 -200 0
40 -201 0
48 -201 0
234 235 236 237 -147 0
73 -234 0
81 -234 0
74 -235 0
82 -235 0
75 -236 0
83 -236 0
76 -237 0
84 -237 0
270 271 272 273 -147 0
109 -270 0
117 -270 0
110 -271 0
118 -271 0
111 -272 0
119 -272 0
112 -273 0
120 -273 0
166 167 168 169 -148 0
1 -166 0
13 -166 0
2 -167 0
14 -167 0
3 -168 0
15 -168 0
4 -169 0
16 -169 0
202 203 204 205 -148 0
37 -202 0
49 -202 0
38 -203 0
50 -203 0
39 -204 0
51 -204 0
40 -205 0
52 -205 0
238 239 240 241 -148 0
73 -238 0
85 -238 0
74 -239 0
86 -239 0
75 -240 0
87 -240 0
76 -241 0
88 -241 0
274 275 276 277 -148 0
109 -274 0
121 -274 0
110 -275 0
122 -275 0
111 -276 0
123 -276 0
112 -277 0
124 -277 0
170 171 172 173 -149 0
1 -170 0
17 -170 0
2 -171 0
18 -171 0
3 -172 0
19 -172 0
4 -173 0
20 -173 0
206 207 208 209 -149 0
37 -206 0
53 -206 0
38 -207 0
54 -207 0
39 -208 0
55 -208 0
40 -209 0
56 -209 0
242 243 244 245 -149 0
73 -242 0
89 -242 0
74 -243 0
90 -243 0
75 -244 0
91 -244 0
76 -245 0
92 -245 0
278 279 280 281 -149 0
109 -278 0
125 -278 0
110 -279 0
126 -279 0
111 -280 0
127 -280 0
112 -281 0
128 -281 0
174 175 176 177 -150 0
1 -174 0
21 -174 0
2 -175 0
22 -175 0
3 -176 0
23 -176 0
4 -177 0
24 -177 0
210 211 212 213 -150 0
37 -210 0
57 -210 0
38 -211 0
58 -211 0
39 -212 0
59 -212 0
40 -213 0
60 -213 0
246 247 248 249 -150 0
73 -246 0
93 -246 0
74 -247 0
94 -247 0
75 -248 0
95 -248 0
76 -249 0
96 -249 0
282 283 284 285 -150 0
109 -282 0
129 -282 0
110 -283 0
130 -283 0
111 -284 0
131 -284 0
112 -285 0
132 -285 0
178 179 180 181 -151 0
1 -178 0
25 -178 0
2 -179 0
26 -179 0
3 -180 0
27 -180 0
4 -181 0
28 -181 0
214 215 216 217 -151 0
37 -214 0
61 -214 0
38 -215 0
62 -215 0
39 -216 0
63 -216 0
40 -217 0
64 -217 0
250 251 252 253 -151 0
73 -250 0
97 -250 0
74 -251 0
98 -251 0
75 -252 0
99 -252 0
76 -253 0
100 -253 0
286 287 288 289 -151 0
109 -286 0
133 -286 0
110 -287 0
134 -287 0
111 -288 0
135 -288 0
112 -289 0
136 -289 0
182 183 184 185 -152 0
1 -182 0
29 -182 0
2 -183 0
30 -183 0
3 -184 0
31 -184 0
4 -185 0
32 -185 0
218 219 220 221 -152 0
37 -218 0
65 -218 0
38 -219 0
66 -219 0
39 -220 0
67 -220 0
40 -221 0
68 -221 0
254 255 256 257 -152 0
73 -254 0
101 -254 0
74 -255 0
102 -255 0
75 -256 0
103 -256 0
76 -257 0
104 -257 0
290 291 292 293 -152 0
109 -290 0
137 -290 0
110 -291 0
138 -291 0
111 -292 0
139 -292 0
112 -293 0
140 -293 0
186 187 188 189 -153 0
1 -186 0
33 -186 0
2 -187 0
34 -187 0
3 -188 0
35 -188 0
4 -189 0
36 -189 0
222 223 224 225 -153 0
37 -222 0
69 -222 0
38 -223 0
70 -223 0
39 -224 0
71 -224 0
40 -225 0
72 -225 0
258 259 260 261 -153 0
73 -258 0
105 -258 0
74 -259 0
106 -259 0
75 -260 0
107 -260 0
76 -261 0
108 -261 0
294 295 296 297 -153 0
109 -294 0
141 -294 0
110 -295 0
142 -295 0
111 -296 0
143 -296 0
112 -297 0
144 -297 0
-1 -37 -73 -109 0
-2 -38 -74 -110 0
-3 -39 -75 -111 0
-4 -40 -76 -112 0
